WARNING: for repeatability, setting FPU to use double precision
============================[ Problem Statistics ]=============================
|                                                                             |
|  Number of variables:         14208                                         |
|  Number of clauses:          172064                                         |
|  Parse time:                   0.03 s                                       |
|                                                                             |
c ============================[ Search Statistics ]==============================
c | Conflicts |          ORIGINAL         |          LEARNT          | Progress |
c |           |    Vars  Clauses Literals |    Limit  Clauses Lit/Cl |          |
c ===============================================================================
c Switched to VSIDS.
c Switched to LRB.
c Switched to VSIDS.
c Switched to LRB.
c Switched to VSIDS.
c Switched to LRB.
c Switched to VSIDS.
c Switched to LRB.
c Switched to VSIDS.
c Switched to LRB.
c Switched to VSIDS.
c Switched to LRB.
c Switched to VSIDS.
c Switched to LRB.
c Switched to VSIDS.
c Switched to LRB.
c Switched to VSIDS.
c Switched to LRB.
c Switched to VSIDS.
c Switched to LRB.
c Switched to VSIDS.
c Switched to LRB.
c Switched to VSIDS.
c Switched to LRB.
c Switched to VSIDS.
c Switched to LRB.
c Switched to VSIDS.
c Switched to LRB.
c Switched to VSIDS.
c Switched to LRB.
c Switched to VSIDS.
c Switched to LRB.
c Switched to VSIDS.
c Switched to LRB.
c Switched to VSIDS.
c ===============================================================================
restarts                  : 115360
conflicts                 : 19939751       (5675 /sec)
decisions                 : 170245990      (0.00 % random) (48452 /sec)
propagations              : 8648284781     (2461290 /sec)
conflict literals         : 3024887025     (23.57 % deleted)

conflicts w/ DIP found    : 14449253       (72.46 % of conflicts)
conflicts w/ dangerous DIP: 0              (0.00 % of conflicts)
conflicts w/ DIP-learning : 88085          (0.44 % of conflicts)
decisions on ext vars     : 1029151        (0.60 % of decisions)
total ext vars            : 11281       
tried delete ext vars     : 0           
deleted ext vars          : 0           
max ext vars              : 11281       

Memory used               : 746.00 MB
CPU time                  : 3513.72 s
DIP computation time      : 152.561 s (4.34 % of total time)
ER_sel time               : 36.7612 s
ER_add time               : 0.047515 s
ER_delC time              : 0 s
ER_delV time              : 0 s
ER_sub time               : 41.2197 s
ER_stat time              : 0 s

INDETERMINATE
